sing20170106.12
TTAA 56121 48698
99003 31260 25003 00054 30459 23507 92745 23836 26007
85481 18630 25516 70123 10445 25032 50585 04318 25019
40758 14517 26020 30970 29363 05015 25097 40142 10011
20245 53140 10016 15424 68950 10537 10657 81958 10579
88105 83156 11068
77100 10579 413//=
TTCC 56122 48698
70862 76164 25535 50060 69172 25510 30371 58579 26536
20627 54782 26550
88999
77999=
TTDD 5612/ 48698
11921 75964 22814 79362 33813 79362 44774 74365 55728
76564 66566 72368 77551 69171 88502 69771 99455 64176
11382 67973 22368 64776 33339 66375 44305 59179 55276
58579 66202 56381 77191 51383 88127 45586 99126 45786
21212 11936 08532 22886 07510 33862 03504 44842 33510
55820 32519 66780 26525 77722 27031 88689 25037 99638
26017 11620 25018 22571 28519 33549 27514 44519 29010
55505 27008 66498 25011 77472 25031 88437 24535 99400
26537 11363 25036 22336 27534 33313 26531 44292 26037
55265 28540 66219 26543 77189 26552 88139 28032 99130
29528 11126 30537=
